% demand
num_movements = 16;
loading_factor = [1300, 1300, 1950, 1100, 1350, 1400, 1400, 1150, 1450, 1500, 950, 1450, 950, 1450, 900, 1300];
pickup_time = [0, 0, 0, 0, 0, 2, 3, 4, 4, 5, 5, 6, 7, 8, 9, 9];
delivery_time = [2, 4, 7, 2, 2, 3, 4, 7, 5, 7, 7, 9, 8, 10, 10, 10];

% transporter definition
total_capacity = 7000;
num_decks = 3;
capacity = [3000, 1000, 3000];

% ways out of decks
num_ways_out = 1;
paths_out = array3d(decks, ways_out, decks, [
% ways out of deck d1
2, 3, 0, 

% ways out of deck d2
3, 0, 0, 

% ways out of deck d3
0, 0, 0,	

]);

